FoodBank_SmallCase1.lp
\ Model Food_Bank
\ LP format - for model browsing. Use MPS format to capture full model detail.
Minimize
  1.533 dt_1_199_28 + 1.533 dt_1_199_19 + 1.533 dt_1_198_28
   + 1.533 dt_1_198_19 + 1.533 dt_1_202_28 + 1.533 dt_1_202_19
   + 1.533 dt_1_47_28 + 1.533 dt_1_47_19 + 1.533 dt_1_197_28
   + 1.533 dt_1_197_19 + [ 0.0239266666666667 aFP_1_199 * fFP_1_199
   + 0.0239266666666667 aFP_1_198 * fFP_1_198
   + 0.0239266666666667 aFP_1_202 * fFP_1_202
   + 0.0239266666666667 aFP_1_47 * fFP_1_47
   + 0.0239266666666667 aFP_1_197 * fFP_1_197
   + 55.88613333333333 nT_1_199 * fFP_1_199 + 24.9704 nT_1_198 * fFP_1_198
   + 36.86106666666667 nT_1_202 * fFP_1_202
   + 38.05013333333333 nT_1_47 * fFP_1_47
   + 47.56266666666667 nT_1_197 * fFP_1_197
   + 0.34966 dt_199_28 * dt_1_199_28 + 0.34966 dt_199_19 * dt_1_199_19
   + 0.34966 dt_198_28 * dt_1_198_28 + 0.34966 dt_198_19 * dt_1_198_19
   + 0.34966 dt_202_28 * dt_1_202_28 + 0.34966 dt_202_19 * dt_1_202_19
   + 0.34966 dt_47_28 * dt_1_47_28 + 0.34966 dt_47_19 * dt_1_47_19
   + 0.34966 dt_197_28 * dt_1_197_28 + 0.34966 dt_197_19 * dt_1_197_19
   ] / 2 
Subject To
 F1_sendsFood_Pj: x_1_199 + x_1_198 + x_1_202 + x_1_47 + x_1_197 >= 1
 P199_receiveFood_Fi: x_1_199 <= 1
 P198_receiveFood_Fi: x_1_198 <= 1
 P202_receiveFood_Fi: x_1_202 <= 1
 P47_receiveFood_Fi: x_1_47 <= 1
 P197_receiveFood_Fi: x_1_197 <= 1
 P199_sendsFood_Zk: y_199_28 + y_199_19 <= 1
 P198_sendsFood_Zk: y_198_28 + y_198_19 <= 1
 P202_sendsFood_Zk: y_202_28 + y_202_19 <= 1
 P47_sendsFood_Zk: y_47_28 + y_47_19 <= 1
 P197_sendsFood_Zk: y_197_28 + y_197_19 <= 1
 Z28_receiveFood_Pj: y_199_28 + y_198_28 + y_202_28 + y_47_28 + y_197_28
   >= 1
 Z19_receiveFood_Pj: y_199_19 + y_198_19 + y_202_19 + y_47_19 + y_197_19
   >= 1
 R13: - 24000 y_199_28 + dt_199_28 <= 0
 R14: - 24000 y_199_19 + dt_199_19 <= 0
 R15: - 24000 y_198_28 + dt_198_28 <= 0
 R16: - 24000 y_198_19 + dt_198_19 <= 0
 R17: - 24000 y_202_28 + dt_202_28 <= 0
 R18: - 24000 y_202_19 + dt_202_19 <= 0
 R19: - 24000 y_47_28 + dt_47_28 <= 0
 R20: - 24000 y_47_19 + dt_47_19 <= 0
 R21: - 24000 y_197_28 + dt_197_28 <= 0
 R22: - 24000 y_197_19 + dt_197_19 <= 0
 R23: - 14382 x_1_199 + aFP_1_199 <= 0
 R24: - 30365 x_1_198 + aFP_1_198 <= 0
 R25: - 5683 x_1_202 + aFP_1_202 <= 0
 R26: - 37994 x_1_47 + aFP_1_47 <= 0
 R27: - 18193 x_1_197 + aFP_1_197 <= 0
 R28: aFP_1_199 + aFP_1_198 + aFP_1_202 + aFP_1_47 + aFP_1_197
   <= 3.8920713e+09
 R29: aFP_1_199 - aPZ_199_28 - aPZ_199_19 = 0
 R30: aFP_1_198 - aPZ_198_28 - aPZ_198_19 = 0
 R31: aFP_1_202 - aPZ_202_28 - aPZ_202_19 = 0
 R32: aFP_1_47 - aPZ_47_28 - aPZ_47_19 = 0
 R33: aFP_1_197 - aPZ_197_28 - aPZ_197_19 = 0
 R34: - 1.2738844300000001e+08 y_199_28 + aPZ_199_28 <= 0
 R35: - 1.2738844300000001e+08 y_199_19 + aPZ_199_19 <= 0
 R36: - 1.2738844300000001e+08 y_198_28 + aPZ_198_28 <= 0
 R37: - 1.2738844300000001e+08 y_198_19 + aPZ_198_19 <= 0
 R38: - 1.2738844300000001e+08 y_202_28 + aPZ_202_28 <= 0
 R39: - 1.2738844300000001e+08 y_202_19 + aPZ_202_19 <= 0
 R40: - 1.2738844300000001e+08 y_47_28 + aPZ_47_28 <= 0
 R41: - 1.2738844300000001e+08 y_47_19 + aPZ_47_19 <= 0
 R42: - 1.2738844300000001e+08 y_197_28 + aPZ_197_28 <= 0
 R43: - 1.2738844300000001e+08 y_197_19 + aPZ_197_19 <= 0
 R44: - 24000 x_1_199 + ort_1_199 <= 0
 R45: - 24000 x_1_198 + ort_1_198 <= 0
 R46: - 24000 x_1_202 + ort_1_202 <= 0
 R47: - 24000 x_1_47 + ort_1_47 <= 0
 R48: - 24000 x_1_197 + ort_1_197 <= 0
 R49: - aFP_1_199 + 10000 nT_1_199 >= 0
 R50: - aFP_1_198 + 10000 nT_1_198 >= 0
 R51: - aFP_1_202 + 10000 nT_1_202 >= 0
 R52: - aFP_1_47 + 10000 nT_1_47 >= 0
 R53: - aFP_1_197 + 10000 nT_1_197 >= 0
 R54: nT_1_199 + nT_1_198 + nT_1_202 + nT_1_47 + nT_1_197 <= 700
 R55: - 24000 nT_1_199 + fFP_1_199 <= 0
 R56: - 24000 nT_1_198 + fFP_1_198 <= 0
 R57: - 24000 nT_1_202 + fFP_1_202 <= 0
 R58: - 24000 nT_1_47 + fFP_1_47 <= 0
 R59: - 24000 nT_1_197 + fFP_1_197 <= 0
 R60: - 1.6666666666666666e-04 aFP_1_199 + ut_1_199 = 0
 R61: - 1.6666666666666666e-04 aFP_1_198 + ut_1_198 = 0
 R62: - 1.6666666666666666e-04 aFP_1_202 + ut_1_202 = 0
 R63: - 1.6666666666666666e-04 aFP_1_47 + ut_1_47 = 0
 R64: - 1.6666666666666666e-04 aFP_1_197 + ut_1_197 = 0
 R65: 0.1566666666666667 x_1_199 - ort_1_199 + opt_1_199 <= 0
 R66: 0.07 x_1_198 - ort_1_198 + opt_1_198 <= 0
 R67: 0.1033333333333333 x_1_202 - ort_1_202 + opt_1_202 <= 0
 R68: 0.1066666666666667 x_1_47 - ort_1_47 + opt_1_47 <= 0
 R69: 0.1333333333333333 x_1_197 - ort_1_197 + opt_1_197 <= 0
 R70: - 0.496 y_199_28 - 0.208 y_199_19 + opt_1_199 - ut_1_199 >= 0
 R71: - 0.304 y_198_28 - 0.072 y_198_19 + opt_1_198 - ut_1_198 >= 0
 R72: - 0.392 y_202_28 - 0.104 y_202_19 + opt_1_202 - ut_1_202 >= 0
 R73: - 0.392 y_47_28 - 0.184 y_47_19 + opt_1_47 - ut_1_47 >= 0
 R74: - 0.368 y_197_28 - 0.392 y_197_19 + opt_1_197 - ut_1_197 >= 0
 R75: - 24000 x_1_199 + opt_1_199 <= 0
 R76: - 24000 x_1_198 + opt_1_198 <= 0
 R77: - 24000 x_1_202 + opt_1_202 <= 0
 R78: - 24000 x_1_47 + opt_1_47 <= 0
 R79: - 24000 x_1_197 + opt_1_197 <= 0
 qc0: - aPZ_199_28 - 993.8727500000002 dt_199_28 + [
   993.8727500000002 y_199_28 * ort_1_199 ] = 0
 qc1: - aPZ_199_19 - 1420.679 dt_199_19 + [ 1420.679 y_199_19 * ort_1_199 ]
   = 0
 qc2: - aPZ_198_28 - 993.8727500000002 dt_198_28 + [
   993.8727500000002 y_198_28 * ort_1_198 ] = 0
 qc3: - aPZ_198_19 - 1420.679 dt_198_19 + [ 1420.679 y_198_19 * ort_1_198 ]
   = 0
 qc4: - aPZ_202_28 - 993.8727500000002 dt_202_28 + [
   993.8727500000002 y_202_28 * ort_1_202 ] = 0
 qc5: - aPZ_202_19 - 1420.679 dt_202_19 + [ 1420.679 y_202_19 * ort_1_202 ]
   = 0
 qc6: - aPZ_47_28 - 993.8727500000002 dt_47_28 + [
   993.8727500000002 y_47_28 * ort_1_47 ] = 0
 qc7: - aPZ_47_19 - 1420.679 dt_47_19 + [ 1420.679 y_47_19 * ort_1_47 ]
   = 0
 qc8: - aPZ_197_28 - 993.8727500000002 dt_197_28 + [
   993.8727500000002 y_197_28 * ort_1_197 ] = 0
 qc9: - aPZ_197_19 - 1420.679 dt_197_19 + [ 1420.679 y_197_19 * ort_1_197 ]
   = 0
 qc10: - 0.496 y_199_28 + dt_199_28 + [ - y_199_28 * ut_1_199 ] >= 0
 qc11: - 0.208 y_199_19 + dt_199_19 + [ - y_199_19 * ut_1_199 ] >= 0
 qc12: - 0.304 y_198_28 + dt_198_28 + [ - y_198_28 * ut_1_198 ] >= 0
 qc13: - 0.072 y_198_19 + dt_198_19 + [ - y_198_19 * ut_1_198 ] >= 0
 qc14: - 0.392 y_202_28 + dt_202_28 + [ - y_202_28 * ut_1_202 ] >= 0
 qc15: - 0.104 y_202_19 + dt_202_19 + [ - y_202_19 * ut_1_202 ] >= 0
 qc16: - 0.392 y_47_28 + dt_47_28 + [ - y_47_28 * ut_1_47 ] >= 0
 qc17: - 0.184 y_47_19 + dt_47_19 + [ - y_47_19 * ut_1_47 ] >= 0
 qc18: - 0.368 y_197_28 + dt_197_28 + [ - y_197_28 * ut_1_197 ] >= 0
 qc19: - 0.392 y_197_19 + dt_197_19 + [ - y_197_19 * ut_1_197 ] >= 0
 qc20: aPZ_199_28 + aPZ_198_28 + aPZ_202_28 + aPZ_47_28 + aPZ_197_28 + [
   - 993.8727500000002 y_199_28 * ort_1_199 ] >= 0
 qc21: aPZ_199_19 + aPZ_198_19 + aPZ_202_19 + aPZ_47_19 + aPZ_197_19 + [
   - 1420.679 y_199_19 * ort_1_199 ] >= 0
 qc22: aPZ_199_28 + aPZ_198_28 + aPZ_202_28 + aPZ_47_28 + aPZ_197_28 + [
   - 993.8727500000002 y_198_28 * ort_1_198 ] >= 0
 qc23: aPZ_199_19 + aPZ_198_19 + aPZ_202_19 + aPZ_47_19 + aPZ_197_19 + [
   - 1420.679 y_198_19 * ort_1_198 ] >= 0
 qc24: aPZ_199_28 + aPZ_198_28 + aPZ_202_28 + aPZ_47_28 + aPZ_197_28 + [
   - 993.8727500000002 y_202_28 * ort_1_202 ] >= 0
 qc25: aPZ_199_19 + aPZ_198_19 + aPZ_202_19 + aPZ_47_19 + aPZ_197_19 + [
   - 1420.679 y_202_19 * ort_1_202 ] >= 0
 qc26: aPZ_199_28 + aPZ_198_28 + aPZ_202_28 + aPZ_47_28 + aPZ_197_28 + [
   - 993.8727500000002 y_47_28 * ort_1_47 ] >= 0
 qc27: aPZ_199_19 + aPZ_198_19 + aPZ_202_19 + aPZ_47_19 + aPZ_197_19 + [
   - 1420.679 y_47_19 * ort_1_47 ] >= 0
 qc28: aPZ_199_28 + aPZ_198_28 + aPZ_202_28 + aPZ_47_28 + aPZ_197_28 + [
   - 993.8727500000002 y_197_28 * ort_1_197 ] >= 0
 qc29: aPZ_199_19 + aPZ_198_19 + aPZ_202_19 + aPZ_47_19 + aPZ_197_19 + [
   - 1420.679 y_197_19 * ort_1_197 ] >= 0
 qc30: - 240 x_1_199 + [ ort_1_199 * fFP_1_199 ] >= 0
 qc31: - 240 x_1_198 + [ ort_1_198 * fFP_1_198 ] >= 0
 qc32: - 240 x_1_202 + [ ort_1_202 * fFP_1_202 ] >= 0
 qc33: - 240 x_1_47 + [ ort_1_47 * fFP_1_47 ] >= 0
 qc34: - 240 x_1_197 + [ ort_1_197 * fFP_1_197 ] >= 0
 qc35: dt_1_199_28 + [ - dt_199_28 * fFP_1_199 ] = 0
 qc36: dt_1_199_19 + [ - dt_199_19 * fFP_1_199 ] = 0
 qc37: dt_1_198_28 + [ - dt_198_28 * fFP_1_198 ] = 0
 qc38: dt_1_198_19 + [ - dt_198_19 * fFP_1_198 ] = 0
 qc39: dt_1_202_28 + [ - dt_202_28 * fFP_1_202 ] = 0
 qc40: dt_1_202_19 + [ - dt_202_19 * fFP_1_202 ] = 0
 qc41: dt_1_47_28 + [ - dt_47_28 * fFP_1_47 ] = 0
 qc42: dt_1_47_19 + [ - dt_47_19 * fFP_1_47 ] = 0
 qc43: dt_1_197_28 + [ - dt_197_28 * fFP_1_197 ] = 0
 qc44: dt_1_197_19 + [ - dt_197_19 * fFP_1_197 ] = 0
Bounds
Binaries
 x_1_199 x_1_198 x_1_202 x_1_47 x_1_197 y_199_28 y_199_19 y_198_28 y_198_19
 y_202_28 y_202_19 y_47_28 y_47_19 y_197_28 y_197_19
Generals
 nT_1_199 nT_1_198 nT_1_202 nT_1_47 nT_1_197 fFP_1_199 fFP_1_198 fFP_1_202
 fFP_1_47 fFP_1_197
End
