FoodBank_SmallCase1.sol
# Solution for model Food_Bank
# Objective value = 9.5232625963152386e+03
x_1_199 0
x_1_198 1
x_1_202 1
x_1_47 1
x_1_197 1
y_199_28 0
y_199_19 0
y_198_28 0
y_198_19 1
y_202_28 1
y_202_19 0
y_47_28 0
y_47_19 1
y_197_28 1
y_197_19 0
aFP_1_199 0
aFP_1_198 9.4711933333206816e+03
aFP_1_202 5683
aFP_1_47 9.4711933333666639e+03
aFP_1_197 9.2250912500143750e+03
aPZ_199_28 0
aPZ_198_28 0
aPZ_202_28 5683
aPZ_47_28 0
aPZ_197_28 9.2250912500143750e+03
aPZ_199_19 0
aPZ_198_19 9.4711933333206816e+03
aPZ_202_19 0
aPZ_47_19 9.4711933333666639e+03
aPZ_197_19 0
nT_1_199 0
nT_1_198 1
nT_1_202 1
nT_1_47 1
nT_1_197 1
ort_1_199 0
ort_1_198 1.3333333333333336e+01
ort_1_202 1.4999999999980471e+01
ort_1_47 1.3333333333333334e+01
ort_1_197 15
opt_1_199 0
opt_1_198 1.6505322222201135e+00
opt_1_202 1.3391666666666666e+00
opt_1_47 1.7625322222277773e+00
opt_1_197 1.9055152083357290e+00
dt_199_28 0
dt_199_19 0
dt_198_28 0
dt_198_19 6.6666666666901264e+00
dt_202_28 9.2819641649245881e+00
dt_202_19 0
dt_47_28 0
dt_47_19 6.6666666666577594e+00
dt_197_28 5.7180358350705252e+00
dt_197_19 0
ut_1_199 0
ut_1_198 1.5785322222201135e+00
ut_1_202 9.4716666666666660e-01
ut_1_47 1.5785322222277773e+00
ut_1_197 1.5375152083357291e+00
fFP_1_199 0
fFP_1_198 18
fFP_1_202 16
fFP_1_47 18
fFP_1_197 16
dt_1_199_28 0
dt_1_199_19 0
dt_1_198_28 0
dt_1_198_19 1.2000000000042228e+02
dt_1_202_28 1.4851142663879341e+02
dt_1_202_19 0
dt_1_47_28 0
dt_1_47_19 1.1999999999983967e+02
dt_1_197_28 91.4885733611284
dt_1_197_19 0
